p cnf 17 0
c 1 AUTO_BED_LEVELING
c 2 AUTO_BED_LEVELING_GRID
c 3 BABYSTEPPING
c 4 DELTA
c 5 DISABLE_M503
c 6 ENABLE_AUTO_BED_LEVELING
c 7 ENCODER_RATE_MULTIPLIER
c 8 HAS_BED_THERMAL_PROTECTION
c 9 HAS_HEATER_THERMAL_PROTECTION
c 10 MARLIN_H
c 11 MESH_BED_LEVELING
c 12 PID_DEBUG
c 13 PIDTEMP
c 14 SDSUPPORT
c 15 ULTRA_LCD
c 16 Z_DUAL_ENDSTOPS
c 17 Z_DUAL_STEPPER_DRIVERS